
Gurobi 11.0.1 (win64) logging started Mon May 13 14:55:23 2024

Set parameter LogFile to value "output/solver_log7.txt"
Gurobi Optimizer version 11.0.1 build v11.0.1rc0 (win64 - Windows 11.0 (22631.2))

CPU model: 11th Gen Intel(R) Core(TM) i7-1165G7 @ 2.80GHz, instruction set [SSE2|AVX|AVX2|AVX512]
Thread count: 4 physical cores, 8 logical processors, using up to 8 threads

Optimize a model with 1181 rows, 324 columns and 21674 nonzeros
Model fingerprint: 0x54767a30
Variable types: 88 continuous, 236 integer (236 binary)
Coefficient statistics:
  Matrix range     [4e-01, 1e+05]
  Objective range  [1e+00, 1e+02]
  Bounds range     [1e+00, 1e+00]
  RHS range        [1e-02, 1e+05]

User MIP start produced solution with objective 56222.9 (0.00s)
User MIP start produced solution with objective 56222.9 (0.00s)
Loaded user MIP start with objective 56222.9

Presolve removed 139 rows and 143 columns
Presolve time: 0.02s
Presolved: 1042 rows, 181 columns, 20552 nonzeros
Variable types: 81 continuous, 100 integer (98 binary)

Root relaxation: objective 5.650094e+04, 370 iterations, 0.02 seconds (0.04 work units)

    Nodes    |    Current Node    |     Objective Bounds      |     Work
 Expl Unexpl |  Obj  Depth IntInf | Incumbent    BestBd   Gap | It/Node Time

H    0     0                    56500.942642 111434.814  97.2%     -    0s
     0     0          -    0      56500.9426 56500.9426  0.00%     -    0s

Explored 1 nodes (534 simplex iterations) in 0.09 seconds (0.14 work units)
Thread count was 8 (of 8 available processors)

Solution count 3: 56500.9 56500.9 56222.9 

Optimal solution found (tolerance 1.00e-04)
Best objective 5.650094264241e+04, best bound 5.650094264241e+04, gap 0.0000%
